tsp_instances/TSP50/instance56.tsp
NODE_COORD_SECTION
0 57 21
1 123 57
2 160 19
3 40 14
4 28 162
5 110 79
6 114 134
7 84 97
8 36 194
9 182 16
10 6 49
11 108 46
12 152 18
13 172 55
14 78 19
15 113 164
16 64 63
17 172 138
18 135 33
19 50 26
20 56 1
21 99 121
22 99 4
23 20 189
24 3 73
25 99 49
26 64 101
27 52 125
28 157 170
29 72 113
30 75 119
31 87 113
32 53 197
33 172 114
34 115 153
35 20 103
36 181 65
37 166 117
38 74 101
39 67 62
40 90 162
41 5 179
42 77 176
43 77 160
44 173 163
45 112 49
46 68 127
47 48 179
48 70 88
49 126 63
