tsp_instances/TSP50/instance56.opt.tour
TOUR_SECTION
1
20
4
11
25
36
28
5
42
24
9
33
48
43
41
44
47
31
30
39
27
49
17
40
26
12
46
2
50
6
8
32
22
7
35
16
29
45
18
38
34
37
14
10
3
13
19
23
15
21
-1